
Gurobi 11.0.1 (win64) logging started Fri Mar  8 12:18:15 2024

Set parameter LogFile to value "res/logfile/neos-1354092log.txt"
Gurobi Optimizer version 11.0.1 build v11.0.1rc0 (win64 - Windows 11.0 (22621.2))

CPU model: AMD Ryzen Threadripper PRO 5975WX 32-Cores, instruction set [SSE2|AVX|AVX2]
Thread count: 32 physical cores, 64 logical processors, using up to 10 threads

Optimize a model with 5024 rows, 13702 columns and 200410 nonzeros
Model fingerprint: 0x19c24ef0
Variable types: 0 continuous, 13702 integer (13223 binary)
Coefficient statistics:
  Matrix range     [1e+00, 1e+00]
  Objective range  [1e+00, 1e+00]
  Bounds range     [1e+00, 3e+02]
  RHS range        [1e+00, 2e+02]
Presolve removed 1889 rows and 0 columns
Presolve time: 0.22s
Presolved: 3135 rows, 13702 columns, 170030 nonzeros
Variable types: 0 continuous, 13702 integer (13223 binary)

Use crossover to convert LP symmetric solution to basic solution...

Root relaxation: objective 1.328571e+01, 12629 iterations, 0.82 seconds (1.83 work units)
Total elapsed time = 5.14s (DegenMoves)

    Nodes    |    Current Node    |     Objective Bounds      |     Work
 Expl Unexpl |  Obj  Depth IntInf | Incumbent    BestBd   Gap | It/Node Time

     0     0   13.28571    0  828          -   13.28571      -     -    7s
H    0     0                      73.0000000   13.28571  81.8%     -    8s
     0     0   35.65714    0  637   73.00000   35.65714  51.2%     -   14s
     0     0   41.14286    0  424   73.00000   41.14286  43.6%     -   17s
H    0     0                      58.0000000   41.14286  29.1%     -   18s
H    0     0                      57.0000000   41.14286  27.8%     -   27s
     0     0   46.00000    0  416   57.00000   46.00000  19.3%     -   29s
     0     0   46.00000    0  373   57.00000   46.00000  19.3%     -   31s
     0     0   46.00000    0  357   57.00000   46.00000  19.3%     -   33s
     0     0   46.00000    0  375   57.00000   46.00000  19.3%     -   40s
     0     0   46.00000    0  343   57.00000   46.00000  19.3%     -   42s
     0     0   46.00000    0  323   57.00000   46.00000  19.3%     -   44s
     0     0   46.00000    0  356   57.00000   46.00000  19.3%     -   46s
     0     0   46.00000    0  303   57.00000   46.00000  19.3%     -   49s
     0     0   46.00000    0  314   57.00000   46.00000  19.3%     -   52s
     0     0   46.00000    0  262   57.00000   46.00000  19.3%     -   54s
     0     2   46.00000    0  237   57.00000   46.00000  19.3%     -   57s
    15    26   46.00000    4  449   57.00000   46.00000  19.3%  1380   62s
    35    46   46.00000    5  439   57.00000   46.00000  19.3%  1390   69s
H   36    46                      55.0000000   46.00000  16.4%  1352   69s
    45    56   46.00000    6  405   55.00000   46.00000  16.4%  1266   79s
    55    68   46.00000    6  459   55.00000   46.00000  16.4%  1177   81s
    84   104   46.00000    8  436   55.00000   46.00000  16.4%  1030   88s
   103   193   46.00000   10  417   55.00000   46.00000  16.4%  1557   91s
   192   401   46.00000   15  460   55.00000   46.00000  16.4%  1220  100s
   400   637   46.00000   26  446   55.00000   46.00000  16.4%  1037  116s
   636  1277   46.00000   38  413   55.00000   46.00000  16.4%   963  145s
H  788  1277                      54.0000000   46.00000  14.8%   938  145s
  1276  1515   46.00000   82  448   54.00000   46.00000  14.8%   910  170s
H 1305  1515                      53.0000000   46.00000  13.2%   906  170s
  1514  2343   46.00000  100  398   53.00000   46.00000  13.2%   897  200s
H 2342  2781                      52.0000000   46.00000  11.5%   879  228s
H 2512  2781                      51.0000000   46.00000  9.80%   875  228s
H 2686  2781                      50.0000000   46.00000  8.00%   869  228s
  2780  3620   46.00000  189  428   50.00000   46.00000  8.00%   869  257s
  3619  3872   46.00000  237  404   50.00000   46.00000  8.00%   860  285s
  3871  4759   46.00000  253  426   50.00000   46.00000  8.00%   856  316s
  4758  5666   46.00000  310  418   50.00000   46.00000  8.00%   850  347s
  5665  6626   46.00000  366  416   50.00000   46.00000  8.00%   845  378s
H 6625  7208                      49.0000000   46.00000  6.12%   837  414s
  7207  7919   46.00000  427  393   49.00000   46.00000  6.12%   848  447s
  7918  8893   46.00000  467  435   49.00000   46.00000  6.12%   868  498s
  8893  8894   46.00000   52  262   49.00000   46.00000  6.12%   890  504s
  8895  8895   46.00000  138  362   49.00000   46.00000  6.12%   890  518s
  8896  8896   46.00000  480  362   49.00000   46.00000  6.12%   890  521s
  8897  8897   46.00000  273  362   49.00000   46.00000  6.12%   890  538s
  8898  8900   46.00000   11  434   49.00000   46.00000  6.12%   897  541s
  8912  8918   46.00000   14  430   49.00000   46.00000  6.12%   896  545s
  9002  8987   46.00000   19  418   49.00000   46.00000  6.12%   891  550s
  9183  9257   46.00000   28  419   49.00000   46.00000  6.12%   881  564s
H 9351  8756                      48.0000000   46.00000  4.17%   871  564s
  9352  9244   46.00000   33  436   48.00000   46.00000  4.17%   871  578s
  9840  9091   46.00000   58  467   48.00000   46.00000  4.17%   847  605s
  9850  9666   46.00000   58  470   48.00000   46.00000  4.17%   847  620s
 10428 10309   46.00000   93  464   48.00000   46.00000  4.17%   823  636s
 11264 10825   46.00000  133  424   48.00000   46.00000  4.17%   795  649s
 12058 11053   46.00000  174  422   48.00000   46.00000  4.17%   771  675s
 12551 11812   46.00000  214  421   48.00000   46.00000  4.17%   758  689s
 13474 12453   46.00000  262  427   48.00000   46.00000  4.17%   736  705s
 14423 13029   46.00000  310  437   48.00000   46.00000  4.17%   716  719s
 15315 13608   46.00000  354  421   48.00000   46.00000  4.17%   700  733s
 16192 14208   46.00000  398  412   48.00000   46.00000  4.17%   685  747s
 17084 15047   46.00000  442  407   48.00000   46.00000  4.17%   672  766s
 18220 15529   46.00000  500  424   48.00000   46.00000  4.17%   657  780s
 19081 15252   46.00000  544  432   48.00000   46.00000  4.17%   647  804s
 19091 15988   46.00000  544  416   48.00000   46.00000  4.17%   646  826s
H19187 15533                      47.0000000   46.00000  2.13%   645  826s
 19831 15319   46.00000  540  262   47.00000   46.00000  2.13%   638  839s
H19832 14554                      46.0000000   46.00000  0.00%   638  855s

Explored 19832 nodes (12878434 simplex iterations) in 855.27 seconds (2454.64 work units)
Thread count was 10 (of 64 available processors)

Solution count 10: 46 47 48 ... 55

Optimal solution found (tolerance 1.00e-04)
Best objective 4.600000000000e+01, best bound 4.600000000000e+01, gap 0.0000%

User-callback calls 68392, time in user-callback 0.02 sec

Gurobi 11.0.1 (win64) logging started Sun Mar 17 03:11:06 2024

Set parameter LogFile to value "res/logfile/neos-1354092log.txt"

Gurobi 11.0.1 (win64) logging started Sun Mar 17 03:11:06 2024

Set parameter LogFile to value "res/logfile/neos-1354092log.txt"
Gurobi Optimizer version 11.0.1 build v11.0.1rc0 (win64 - Windows 11.0 (22621.2))

CPU model: AMD Ryzen Threadripper PRO 5975WX 32-Cores, instruction set [SSE2|AVX|AVX2]
Thread count: 32 physical cores, 64 logical processors, using up to 10 threads

Optimize a model with 5024 rows, 13702 columns and 200410 nonzeros
Model fingerprint: 0x19c24ef0
Variable types: 0 continuous, 13702 integer (13223 binary)
Coefficient statistics:
  Matrix range     [1e+00, 1e+00]
  Objective range  [1e+00, 1e+00]
  Bounds range     [1e+00, 3e+02]
  RHS range        [1e+00, 2e+02]
Presolve removed 1889 rows and 0 columns
Presolve time: 0.17s
Presolved: 3135 rows, 13702 columns, 170030 nonzeros
Variable types: 0 continuous, 13702 integer (13223 binary)

Use crossover to convert LP symmetric solution to basic solution...

Root relaxation: objective 1.328571e+01, 12629 iterations, 0.81 seconds (1.83 work units)
Total elapsed time = 5.02s (DegenMoves)

    Nodes    |    Current Node    |     Objective Bounds      |     Work
 Expl Unexpl |  Obj  Depth IntInf | Incumbent    BestBd   Gap | It/Node Time

     0     0   13.28571    0  828          -   13.28571      -     -    6s
H    0     0                      73.0000000   13.28571  81.8%     -    7s
     0     0   35.65714    0  637   73.00000   35.65714  51.2%     -   13s
     0     0   41.14286    0  424   73.00000   41.14286  43.6%     -   16s
H    0     0                      58.0000000   41.14286  29.1%     -   17s
H    0     0                      57.0000000   41.14286  27.8%     -   26s
     0     0   46.00000    0  416   57.00000   46.00000  19.3%     -   28s
     0     0   46.00000    0  373   57.00000   46.00000  19.3%     -   30s
     0     0   46.00000    0  357   57.00000   46.00000  19.3%     -   31s
     0     0   46.00000    0  375   57.00000   46.00000  19.3%     -   38s
     0     0   46.00000    0  343   57.00000   46.00000  19.3%     -   40s
     0     0   46.00000    0  323   57.00000   46.00000  19.3%     -   42s
     0     0   46.00000    0  356   57.00000   46.00000  19.3%     -   44s
     0     0   46.00000    0  303   57.00000   46.00000  19.3%     -   46s
     0     0   46.00000    0  314   57.00000   46.00000  19.3%     -   49s
     0     0   46.00000    0  262   57.00000   46.00000  19.3%     -   51s
     0     2   46.00000    0  237   57.00000   46.00000  19.3%     -   54s
     5     8   46.00000    2  413   57.00000   46.00000  19.3%  2701   55s
    35    46   46.00000    5  439   57.00000   46.00000  19.3%  1390   65s
H   36    46                      55.0000000   46.00000  16.4%  1352   65s
    45    56   46.00000    6  405   55.00000   46.00000  16.4%  1266   75s
    84   104   46.00000    8  436   55.00000   46.00000  16.4%  1030   83s
   103   193   46.00000   10  417   55.00000   46.00000  16.4%  1557   86s
   192   401   46.00000   15  460   55.00000   46.00000  16.4%  1220   94s
   400   637   46.00000   26  446   55.00000   46.00000  16.4%  1037  109s
   636  1277   46.00000   38  413   55.00000   46.00000  16.4%   963  137s
H  788  1277                      54.0000000   46.00000  14.8%   938  137s
  1276  1515   46.00000   82  448   54.00000   46.00000  14.8%   910  161s
H 1305  1515                      53.0000000   46.00000  13.2%   906  161s
  1514  2343   46.00000  100  398   53.00000   46.00000  13.2%   897  190s
H 2342  2781                      52.0000000   46.00000  11.5%   879  218s
H 2512  2781                      51.0000000   46.00000  9.80%   875  218s
H 2686  2781                      50.0000000   46.00000  8.00%   869  218s
  2780  3620   46.00000  189  428   50.00000   46.00000  8.00%   869  246s
  3619  3872   46.00000  237  404   50.00000   46.00000  8.00%   860  273s
  3871  4759   46.00000  253  426   50.00000   46.00000  8.00%   856  303s
  4758  5666   46.00000  310  418   50.00000   46.00000  8.00%   850  333s
  5665  6626   46.00000  366  416   50.00000   46.00000  8.00%   845  364s
H 6625  7208                      49.0000000   46.00000  6.12%   837  399s
  7207  7919   46.00000  427  393   49.00000   46.00000  6.12%   848  431s
  7918  8893   46.00000  467  435   49.00000   46.00000  6.12%   868  480s
  8893  8894   46.00000   52  262   49.00000   46.00000  6.12%   890  486s
  8895  8895   46.00000  138  362   49.00000   46.00000  6.12%   890  499s
  8896  8896   46.00000  480  362   49.00000   46.00000  6.12%   890  501s
  8897  8897   46.00000  273  362   49.00000   46.00000  6.12%   890  518s
  8898  8900   46.00000   11  434   49.00000   46.00000  6.12%   897  521s
  8952  8944   46.00000   16  429   49.00000   46.00000  6.12%   894  525s
  9071  9126   46.00000   22  429   49.00000   46.00000  6.12%   887  530s
  9183  9257   46.00000   28  419   49.00000   46.00000  6.12%   881  538s
H 9351  8756                      48.0000000   46.00000  4.17%   871  538s
  9352  9244   46.00000   33  436   48.00000   46.00000  4.17%   871  551s
  9840  9091   46.00000   58  467   48.00000   46.00000  4.17%   847  577s
  9850  9666   46.00000   58  470   48.00000   46.00000  4.17%   847  590s
 10428 10309   46.00000   93  464   48.00000   46.00000  4.17%   823  603s
 11264 10825   46.00000  133  424   48.00000   46.00000  4.17%   795  615s
 12058 11053   46.00000  174  422   48.00000   46.00000  4.17%   771  639s
 12551 11812   46.00000  214  421   48.00000   46.00000  4.17%   758  652s
 13474 12453   46.00000  262  427   48.00000   46.00000  4.17%   736  665s
 14423 13029   46.00000  310  437   48.00000   46.00000  4.17%   716  678s
 15315 13608   46.00000  354  421   48.00000   46.00000  4.17%   700  690s
 16192 14208   46.00000  398  412   48.00000   46.00000  4.17%   685  703s
 17084 15047   46.00000  442  407   48.00000   46.00000  4.17%   672  720s
 18220 15529   46.00000  500  424   48.00000   46.00000  4.17%   657  732s
 19081 15252   46.00000  544  432   48.00000   46.00000  4.17%   647  756s
 19091 15988   46.00000  544  416   48.00000   46.00000  4.17%   646  777s
H19187 15533                      47.0000000   46.00000  2.13%   645  777s
 19831 15319   46.00000  540  262   47.00000   46.00000  2.13%   638  789s
H19832 14554                      46.0000000   46.00000  0.00%   638  804s

Explored 19832 nodes (12878434 simplex iterations) in 805.08 seconds (2454.64 work units)
Thread count was 10 (of 64 available processors)

Solution count 10: 46 47 48 ... 55

Optimal solution found (tolerance 1.00e-04)
Best objective 4.600000000000e+01, best bound 4.600000000000e+01, gap 0.0000%

User-callback calls 60412, time in user-callback 0.04 sec
